p edge 32 96
e 1 18
e 1 25
e 1 27
e 2 9
e 2 18
e 2 29
e 3 2
e 3 9
e 3 17
e 4 5
e 4 11
e 4 17
e 5 2
e 5 12
e 5 27
e 6 9
e 6 10
e 6 16
e 7 4
e 7 8
e 7 18
e 8 23
e 8 27
e 8 31
e 9 8
e 9 14
e 9 18
e 10 21
e 10 31
e 10 31
e 11 15
e 11 17
e 11 23
e 12 2
e 12 20
e 12 23
e 13 19
e 13 21
e 13 31
e 14 15
e 14 25
e 14 29
e 15 9
e 15 16
e 15 20
e 16 3
e 16 17
e 16 26
e 17 6
e 17 11
e 17 24
e 18 1
e 18 1
e 18 22
e 19 14
e 19 18
e 19 29
e 20 12
e 20 17
e 20 27
e 21 26
e 21 28
e 21 32
e 22 3
e 22 16
e 22 30
e 23 3
e 23 16
e 23 21
e 24 12
e 24 16
e 24 19
e 25 3
e 25 12
e 25 20
e 26 4
e 26 5
e 26 22
e 27 11
e 27 17
e 27 22
e 28 7
e 28 11
e 28 13
e 29 2
e 29 24
e 29 30
e 30 3
e 30 27
e 30 29
e 31 10
e 31 18
e 31 28
e 32 6
e 32 11
e 32 13
